Strategies:  

WARNING: for repeatability, setting FPU to use double precision
============================[ Problem Statistics ]=============================
|                                                                             |
|  Number of variables:           999                                         |
|  Number of clauses:            9072                                         |
|  Parse time:                   0.00 s                                       |
|  Eliminated clauses:           0.00 Mb                                      |
|  Simplification time:          0.00 s                                       |
|                                                                             |
============================[ Search Statistics ]==============================
| Conflicts |          ORIGINAL         |          LEARNT          | Progress |
|           |    Vars  Clauses Literals |    Limit  Clauses Lit/Cl |          |
===============================================================================
===============================================================================
restarts              : 1
conflicts             : 20             (5000 /sec)
decisions             : 49             (0.00 % random) (12250 /sec)
propagations          : 2017           (504250 /sec)
conflict literals     : 122            (2.40 % deleted)
Memory used           : 22.00 MB
CPU time              : 0.004 s

SATISFIABLE


Strategies: -b -p  

WARNING: for repeatability, setting FPU to use double precision
============================[ Problem Statistics ]=============================
|                                                                             |
|  Number of variables:           999                                         |
|  Number of clauses:          338580                                         |
|  Parse time:                   0.24 s                                       |
|  Eliminated clauses:           0.00 Mb                                      |
|  Simplification time:         22.82 s                                       |
|                                                                             |
============================[ Search Statistics ]==============================
| Conflicts |          ORIGINAL         |          LEARNT          | Progress |
|           |    Vars  Clauses Literals |    Limit  Clauses Lit/Cl |          |
===============================================================================
===============================================================================
restarts              : 1
conflicts             : 11             (0 /sec)
decisions             : 14             (0.00 % random) (1 /sec)
propagations          : 1519           (66 /sec)
conflict literals     : 86             (31.75 % deleted)
Memory used           : 90.00 MB
CPU time              : 23.06 s

SATISFIABLE


Strategies: -b -x  

WARNING: for repeatability, setting FPU to use double precision
============================[ Problem Statistics ]=============================
|                                                                             |
|  Number of variables:           999                                         |
|  Number of clauses:          302292                                         |
|  Parse time:                   0.21 s                                       |
|  Eliminated clauses:           0.00 Mb                                      |
|  Simplification time:          0.32 s                                       |
|                                                                             |
============================[ Search Statistics ]==============================
| Conflicts |          ORIGINAL         |          LEARNT          | Progress |
|           |    Vars  Clauses Literals |    Limit  Clauses Lit/Cl |          |
===============================================================================
===============================================================================
restarts              : 1
conflicts             : 14             (27 /sec)
decisions             : 19             (0.00 % random) (36 /sec)
propagations          : 1884           (3568 /sec)
conflict literals     : 136            (9.93 % deleted)
Memory used           : 77.00 MB
CPU time              : 0.528 s

SATISFIABLE


Strategies: -b -x -p  

WARNING: for repeatability, setting FPU to use double precision
============================[ Problem Statistics ]=============================
|                                                                             |
|  Number of variables:           999                                         |
|  Number of clauses:          628884                                         |
|  Parse time:                   0.42 s                                       |
|  Eliminated clauses:           0.00 Mb                                      |
|  Simplification time:         22.42 s                                       |
|                                                                             |
============================[ Search Statistics ]==============================
| Conflicts |          ORIGINAL         |          LEARNT          | Progress |
|           |    Vars  Clauses Literals |    Limit  Clauses Lit/Cl |          |
===============================================================================
===============================================================================
restarts              : 1
conflicts             : 11             (0 /sec)
decisions             : 14             (0.00 % random) (1 /sec)
propagations          : 1519           (67 /sec)
conflict literals     : 86             (31.75 % deleted)
Memory used           : 142.00 MB
CPU time              : 22.836 s

SATISFIABLE


Strategies: -b -a  

WARNING: for repeatability, setting FPU to use double precision
============================[ Problem Statistics ]=============================
|                                                                             |
|  Number of variables:           999                                         |
|  Number of clauses:          956772                                         |
|  Parse time:                   0.78 s                                       |
|  Eliminated clauses:           0.00 Mb                                      |
|  Simplification time:          2.11 s                                       |
|                                                                             |
============================[ Search Statistics ]==============================
| Conflicts |          ORIGINAL         |          LEARNT          | Progress |
|           |    Vars  Clauses Literals |    Limit  Clauses Lit/Cl |          |
===============================================================================
===============================================================================
restarts              : 1
conflicts             : 14             (5 /sec)
decisions             : 19             (0.00 % random) (7 /sec)
propagations          : 1884           (651 /sec)
conflict literals     : 136            (9.93 % deleted)
Memory used           : 287.00 MB
CPU time              : 2.892 s

SATISFIABLE


Strategies: -b  

WARNING: for repeatability, setting FPU to use double precision
============================[ Problem Statistics ]=============================
|                                                                             |
|  Number of variables:           999                                         |
|  Number of clauses:           11988                                         |
|  Parse time:                   0.00 s                                       |
|  Eliminated clauses:           0.00 Mb                                      |
|  Simplification time:          0.01 s                                       |
|                                                                             |
============================[ Search Statistics ]==============================
| Conflicts |          ORIGINAL         |          LEARNT          | Progress |
|           |    Vars  Clauses Literals |    Limit  Clauses Lit/Cl |          |
===============================================================================
===============================================================================
restarts              : 1
conflicts             : 14             (1167 /sec)
decisions             : 19             (0.00 % random) (1583 /sec)
propagations          : 1884           (157000 /sec)
conflict literals     : 136            (9.93 % deleted)
Memory used           : 23.00 MB
CPU time              : 0.012 s

SATISFIABLE


